c WARNING: for repeatability, setting FPU to use double precision
d VARIABLES            74014        
d CONSTRAINTS          262188       
c ============================[ Problem Statistics ]=============================
c |                                                                             |
c |  Number of variables:         74014                                         |
c |  Number of clauses:          262188                                         |
c |  Parse time:                   0.05 s                                       |
c |                                                                             |
c ============================[ Search Statistics ]==============================
c | Conflicts |          ORIGINAL         |          LEARNT          | Progress |
c |           |    Vars  Clauses Literals |    Limit  Clauses Lit/Cl |          |
c ===============================================================================
c |       100 |   53932   210166   528727 |    77060      100     91 | 27.133 % |
c |       250 |   53932   210166   528727 |    84766      250     70 | 27.133 % |
c |       475 |   53932   210166   528727 |    93243      475     41 | 27.133 % |
c |       812 |   53932   210166   528727 |   102568      812     32 | 27.133 % |
c |      1318 |   53932   210166   528727 |   112824     1318     27 | 27.133 % |
c |      2077 |   53932   210166   528727 |   124107     2077     27 | 27.133 % |
c |      3216 |   53932   210166   528727 |   136518     3216     28 | 27.133 % |
c |      4924 |   53932   210166   528727 |   150169     4924     25 | 27.133 % |
c |      7486 |   53932   210166   528727 |   165186     7486     42 | 27.133 % |
c |     11330 |   53932   210166   528727 |   181705    11330     40 | 27.133 % |
c |     17096 |   53932   210166   528727 |   199876    17096     47 | 27.133 % |
c |     25745 |   53932   210166   528727 |   219863    25745     50 | 27.133 % |
c |     38719 |   53932   210166   528727 |   241850    38719     64 | 27.133 % |
c |     58180 |   53827   209779   527818 |   266035    57101     69 | 27.275 % |
c |     87372 |   53684   208788   525475 |   292638    81269     95 | 27.468 % |
c ===============================================================================
c restarts              : 255
c conflicts             : 94525          (3368 /sec)
c decisions             : 681564         (0.00 % random) (24281 /sec)
c propagations          : 159951706      (5698365 /sec)
c conflict literals     : 9275201        (16.18 % deleted)
d RESTARTS             255
d FAILURES             94525        
d NODES                681564       
d BACKTRACKS           681564       
d PROPAGATIONS         159951706    
d NOGOODSIZE           98.12 
d MEMORY               71.00 
d TIME                 28.0698 

s SATISFIABLE
